Crypto/instances/samples/hf_n23/hf_n23_cnf06.cnf
c Parameters to produce the formula :
c key -1 -2 -3 4 -5 6 -7 -8 9 10 11 12 13 -14 -15 16 -17 18 -19 -20 21 22 -23 -24 -25 26 -27 -28 29 -30 -31 32
c plaintext -1 2 3 -4 5 -6 7 8 9 -10 -11 -12 -13 -14 -15 -16
c ciphertext -1 -2 -3 -4 5 6 7 -8 9 -10 11 12 13 14 15 -16
c 
p cnf 23 97
5 8 6 0
-2 1 -4 3 0
-14 13 -15 16 20 0
2 1 -4 -17 0
-12 9 10 11 0
-1 17 4 -3 2 0
12 -9 -10 -11 0
-12 9 -11 10 0
-12 -9 -11 -23 0
15 -20 -16 -13 0
7 -22 8 6 0
5 -7 -6 8 0
1 4 -3 2 0
12 -10 -23 11 0
-12 -9 -10 11 0
9 -10 -23 11 0
1 -4 -3 2 0
-9 10 11 -12 19 0
-1 4 -3 -2 0
15 -14 -20 -16 0
-1 -4 3 2 0
12 -9 10 -19 0
-1 -4 -3 2 0
-1 21 4 -3 0
12 -9 -11 10 23 0
-1 -4 -3 -2 0
15 16 -14 0
1 4 -3 -2 0
-1 -2 4 3 0
1 -4 -2 -21 -3 0
-18 6 -8 -5 0
-7 -6 8 -5 22 0
-1 -2 -4 3 0
15 16 -13 0
12 9 -10 -23 0
-19 9 10 11 0
16 -13 -14 0
-9 10 11 23 -12 0
5 -8 -6 0
-12 -9 -19 -10 0
-16 -14 -15 0
-17 4 -3 -2 0
7 -8 -6 0
-7 8 6 0
7 -6 -5 0
15 16 -20 14 0
-9 -10 11 12 0
-2 -4 21 3 0
-20 16 14 13 0
-16 13 0
1 4 3 2 0
1 -4 21 3 0
-7 -8 -6 -5 0
12 -19 10 11 0
-18 -6 8 -5 0
7 -8 -5 0
-1 4 3 2 0
-16 14 -15 0
-17 1 4 -2 0
-7 -6 8 -18 0
5 7 -8 6 0
7 -22 8 -5 0
16 14 -15 -13 0
15 -20 14 -13 0
15 -14 -13 0
-17 -4 -3 2 0
-3 4 21 2 0
5 -7 6 -18 0
12 9 10 11 0
12 9 -23 11 0
12 9 -11 10 0
-1 -17 -3 -2 0
15 16 14 13 0
5 -7 8 -18 0
5 -7 -6 -22 0
-7 -8 -6 -22 0
-12 -9 -11 10 0
-12 -19 -10 11 0
12 9 -10 -11 0
-12 9 -10 11 0
-12 -19 9 11 0
12 19 11 9 -10 0
-9 10 11 12 0
5 -6 8 22 7 0
5 -6 8 7 18 0
-7 -18 -8 6 0
-7 -5 -8 6 0
-12 9 -10 -11 0
-1 4 21 2 0
1 -2 3 -21 4 0
5 -7 -8 -22 0
1 -4 -2 17 -3 0
-1 -17 -4 -3 0
-1 21 -3 2 0
14 13 -15 0
-12 -11 10 -23 0
-5 8 6 7 18 0